words_hard_train/6333.qaiger
aag 66 16 0 1 50
2
4
10
14
18
22
26
34
38
46
58
68
80
92
94
112
132
6 2 5
8 7 5
12 8 11
16 12 15
20 16 19
24 20 23
28 25 26
30 24 27
32 29 31
36 33 34
40 30 39
42 31 38
44 41 43
48 44 47
50 37 49
52 32 35
54 21 22
56 55 25
60 56 59
62 53 61
64 17 18
66 65 21
70 67 68
72 57 58
74 71 73
76 13 14
78 77 17
82 78 81
84 66 69
86 83 85
88 3 4
90 89 7
96 92 94
98 91 97
100 93 95
102 99 101
104 9 10
106 105 13
108 102 107
110 103 106
114 111 112
116 109 115
118 79 80
120 116 119
122 86 121
124 74 123
126 62 125
128 50 127
130 45 46
132 129 131
i0 1 x2[0]
i1 1 x2[1]
i2 1 x2[2]
i3 1 x2[3]
i4 1 x2[4]
i5 1 x2[5]
i6 1 x2[6]
i7 2 y1[6]
i8 1 x2[7]
i9 2 y1[7]
i10 2 y1[5]
i11 2 y1[4]
i12 2 y1[3]
i13 2 y1[0]
i14 2 y1[1]
i15 2 y1[2]
o0 bv[0]
c
simplified
  <
    invert
      2 y1
    or
      1
      subtract
        1 x2
        1
