words_hard_train/6333.qaiger.qdimacs
p cnf 66 151
a 1 2 5 7 9 11 13 19 0
e 3 4 6 8 10 12 14 15 16 17 18 20 21 22 23 24 25 26 27 28 29 30 31 32 33 34 35 36 37 38 39 40 41 42 43 44 45 46 47 48 49 50 51 52 53 54 55 56 57 58 59 60 61 62 63 64 65 66 0
-1 2 3 0
1 -3 0
-2 -3 0
3 2 4 0
-3 -4 0
-2 -4 0
-4 5 6 0
4 -6 0
-5 -6 0
-6 7 8 0
6 -8 0
-7 -8 0
-8 9 10 0
8 -10 0
-9 -10 0
-10 11 12 0
10 -12 0
-11 -12 0
12 -13 14 0
-12 -14 0
13 -14 0
-12 13 15 0
12 -15 0
-13 -15 0
14 15 16 0
-14 -16 0
-15 -16 0
16 -17 18 0
-16 -18 0
17 -18 0
-15 19 20 0
15 -20 0
-19 -20 0
15 -19 21 0
-15 -21 0
19 -21 0
20 21 22 0
-20 -22 0
-21 -22 0
-22 23 24 0
22 -24 0
-23 -24 0
18 24 25 0
-18 -25 0
-24 -25 0
-16 17 26 0
16 -26 0
-17 -26 0
10 -11 27 0
-10 -27 0
11 -27 0
27 12 28 0
-27 -28 0
-12 -28 0
-28 29 30 0
28 -30 0
-29 -30 0
26 30 31 0
-26 -31 0
-30 -31 0
8 -9 32 0
-8 -32 0
9 -32 0
32 10 33 0
-32 -33 0
-10 -33 0
33 -34 35 0
-33 -35 0
34 -35 0
28 -29 36 0
-28 -36 0
29 -36 0
35 36 37 0
-35 -37 0
-36 -37 0
6 -7 38 0
-6 -38 0
7 -38 0
38 8 39 0
-38 -39 0
-8 -39 0
-39 40 41 0
39 -41 0
-40 -41 0
-33 34 42 0
33 -42 0
-34 -42 0
41 42 43 0
-41 -43 0
-42 -43 0
1 -2 44 0
-1 -44 0
2 -44 0
44 3 45 0
-44 -45 0
-3 -45 0
-46 -47 48 0
46 -48 0
47 -48 0
45 48 49 0
-45 -49 0
-48 -49 0
46 47 50 0
-46 -50 0
-47 -50 0
49 50 51 0
-49 -51 0
-50 -51 0
4 -5 52 0
-4 -52 0
5 -52 0
52 6 53 0
-52 -53 0
-6 -53 0
-51 53 54 0
51 -54 0
-53 -54 0
51 -53 55 0
-51 -55 0
53 -55 0
55 -56 57 0
-55 -57 0
56 -57 0
54 57 58 0
-54 -58 0
-57 -58 0
39 -40 59 0
-39 -59 0
40 -59 0
-58 59 60 0
58 -60 0
-59 -60 0
-43 60 61 0
43 -61 0
-60 -61 0
-37 61 62 0
37 -62 0
-61 -62 0
-31 62 63 0
31 -63 0
-62 -63 0
-25 63 64 0
25 -64 0
-63 -64 0
22 -23 65 0
-22 -65 0
23 -65 0
64 65 66 0
-64 -66 0
-65 -66 0
66 0
